c 
c G(k,n,p) graph
c graph gen seed     : 99980
c number of vertices : 80
c max number of edges: 1600
c number of classes  : 2
c edge density       : 0.100000
c edge probability   : 0.200000
c data structure     : sparse
c
c           Graph Stats
c number of vertices  : 80
c nonisolated vertices: 80
c number of edges     : 332
c edge density        : 0.105063
c max degree          : 17
c avg degree          : 8.30
c min degree          : 2
p col 80 332
e 1 77
e 1 75
e 1 74
e 1 62
e 1 59
e 1 29
e 1 28
e 1 27
e 1 22
e 2 64
e 2 53
e 2 47
e 2 45
e 2 35
e 2 31
e 2 17
e 3 80
e 3 71
e 3 42
e 3 40
e 3 38
e 3 20
e 3 5
e 4 72
e 4 61
e 4 51
e 4 24
e 4 22
e 4 17
e 4 12
e 4 8
e 5 75
e 5 45
e 5 28
e 6 76
e 6 64
e 6 53
e 6 52
e 6 7
e 7 65
e 7 33
e 7 26
e 7 14
e 8 78
e 8 73
e 8 44
e 8 33
e 8 23
e 9 76
e 9 69
e 9 59
e 9 51
e 9 22
e 9 19
e 10 76
e 10 74
e 10 47
e 10 36
e 10 30
e 10 24
e 10 19
e 11 77
e 11 72
e 11 64
e 11 61
e 11 54
e 11 19
e 11 17
e 12 71
e 12 68
e 12 67
e 12 60
e 12 46
e 12 44
e 12 32
e 12 21
e 12 18
e 12 16
e 13 80
e 13 67
e 13 44
e 13 42
e 13 40
e 13 39
e 13 34
e 13 23
e 13 21
e 13 16
e 13 15
e 13 14
e 14 77
e 14 61
e 14 52
e 14 51
e 14 49
e 14 36
e 14 27
e 15 76
e 15 75
e 15 69
e 15 45
e 15 27
e 16 77
e 16 72
e 16 52
e 16 45
e 16 36
e 16 35
e 16 30
e 16 29
e 16 28
e 16 22
e 16 19
e 17 73
e 17 56
e 17 50
e 17 46
e 17 42
e 17 33
e 17 26
e 17 23
e 18 69
e 18 53
e 18 52
e 18 51
e 18 48
e 18 30
e 18 27
e 18 25
e 18 24
e 18 22
e 19 71
e 19 42
e 19 41
e 19 40
e 19 39
e 20 75
e 20 69
e 20 57
e 20 54
e 20 52
e 20 49
e 20 27
e 21 74
e 21 61
e 21 55
e 21 45
e 21 28
e 22 73
e 22 66
e 22 60
e 22 46
e 22 44
e 22 42
e 22 40
e 23 61
e 23 59
e 23 52
e 23 51
e 23 47
e 23 35
e 23 30
e 23 24
e 24 63
e 24 60
e 24 41
e 24 32
e 25 67
e 25 56
e 25 42
e 25 41
e 25 40
e 26 64
e 26 45
e 26 35
e 26 27
e 27 71
e 27 66
e 27 63
e 27 58
e 27 50
e 27 41
e 27 38
e 28 73
e 28 71
e 28 65
e 28 60
e 28 44
e 28 41
e 28 39
e 28 38
e 29 67
e 29 66
e 29 42
e 29 41
e 30 65
e 30 60
e 31 80
e 31 58
e 31 41
e 31 40
e 31 38
e 31 37
e 31 33
e 31 32
e 32 61
e 32 54
e 32 53
e 33 77
e 33 75
e 33 57
e 33 51
e 34 76
e 34 72
e 34 62
e 34 48
e 35 78
e 35 71
e 35 70
e 35 68
e 35 63
e 35 44
e 35 40
e 36 70
e 36 67
e 36 58
e 36 38
e 37 69
e 37 55
e 37 53
e 37 51
e 38 77
e 38 75
e 38 69
e 38 59
e 38 53
e 38 48
e 38 45
e 39 79
e 39 74
e 39 48
e 40 76
e 40 72
e 40 57
e 40 53
e 40 49
e 40 48
e 41 79
e 41 48
e 42 79
e 42 77
e 42 69
e 42 54
e 42 52
e 42 45
e 43 65
e 43 44
e 44 69
e 44 61
e 44 59
e 44 53
e 45 78
e 45 71
e 45 67
e 45 66
e 45 60
e 45 50
e 45 46
e 46 72
e 46 69
e 46 53
e 47 73
e 47 71
e 47 68
e 47 66
e 47 60
e 47 56
e 47 50
e 48 80
e 48 71
e 48 66
e 48 60
e 48 50
e 49 67
e 49 63
e 50 79
e 50 77
e 50 72
e 50 52
e 51 71
e 51 67
e 51 63
e 51 60
e 52 73
e 52 68
e 52 60
e 53 73
e 53 70
e 54 78
e 54 65
e 55 78
e 55 71
e 55 70
e 55 67
e 56 59
e 56 57
e 57 78
e 57 60
e 58 76
e 59 80
e 59 66
e 60 75
e 60 69
e 61 71
e 61 68
e 62 80
e 62 78
e 62 71
e 62 67
e 63 79
e 63 74
e 63 64
e 64 67
e 65 77
e 65 69
e 66 79
e 68 72
e 69 71
e 69 70
e 71 79
e 71 76
e 71 75
